c File: instances/14_0.45_2.col
c
c Description: Random graph of size 14 vertices and P(0.44999999999999996) of edges between any two vertices.
p col 14 91
e 1 3
e 1 4
e 1 7
e 1 8
e 1 9
e 1 11
e 2 4
e 2 5
e 2 7
e 2 8
e 2 9
e 2 14
e 3 6
e 3 7
e 3 10
e 3 12
e 4 6
e 4 7
e 4 11
e 4 13
e 5 8
e 5 12
e 5 13
e 6 10
e 6 12
e 6 13
e 7 9
e 7 10
e 7 11
e 7 13
e 8 9
e 8 11
e 8 13
e 9 12
e 9 13
e 9 14
e 10 12
e 10 13
e 11 13
e 12 13
e 12 14
e 13 14